NAME: huelva1111 Wadadi sidelgaum
TYPE: TOUR
DIMENSION : 11
SOLUTION: 694.2401484133403
TOUR_SECTION
2(22.0,19.0),11(22.0,29.0),7(8.0,27.0),6(4.0,23.0),9(9.0,9.0),8(7.0,3.0),4(14.0,5.0),5(35.0,22.0),3(47.0,19.0),10(48.0,28.0),1(14.0,49.0)
10.0 - 2,11
14.142135623730951 - 11,7
5.656854249492381 - 7,6
14.866068747318506 - 6,9
6.324555320336759 - 9,8
7.280109889280518 - 8,4
27.018512172212592 - 4,5
12.36931687685298 - 5,3
9.055385138137417 - 3,10
39.96248240537617 - 10,1
31.04834939252005 - 1,2
EOF